c Generated map
c Size: 12 * 12, weights in range: 1 to 10, walls: True, with ratio 0.05
c dim 3 of 5
c
p sp 144 239
c graph contains 144 nodes and 239 arcs
c
a 1 13 7
a 13 1 7
a 1 2 2
a 2 1 2
a 2 14 5
a 14 2 5
a 2 3 9
a 3 2 9
a 3 15 9
a 15 3 9
a 3 4 4
a 4 3 4
a 4 16 9
a 16 4 9
a 4 5 4
a 5 4 4
a 5 17 8
a 17 5 8
a 5 6 3
a 6 5 3
a 6 18 7
a 18 6 7
a 6 7 8
a 7 6 8
a 7 19 5
a 19 7 5
a 7 8 6
a 8 7 6
a 8 20 10
a 20 8 10
a 8 9 5
a 9 8 5
a 9 21 2
a 21 9 2
a 9 10 7
a 10 9 7
a 10 22 7
a 22 10 7
a 10 11 2
a 11 10 2
a 11 23 4
a 23 11 4
a 11 12 6
a 12 11 6
a 12 24 4
a 24 12 4
a 13 25 9
a 25 13 9
a 13 14 7
a 14 13 7
a 14 26 4
a 26 14 4
a 14 15 5
a 15 14 5
a 15 27 5
a 27 15 5
a 15 16 9
a 16 15 9
a 16 28 8
a 28 16 8
a 16 17 8
a 17 16 8
a 17 29 2
a 29 17 2
a 17 18 1
a 18 17 1
a 18 30 1
a 30 18 1
a 18 19 10
a 19 18 10
a 19 20 6
a 20 19 6
a 20 32 6
a 32 20 6
a 20 21 2
a 21 20 2
a 21 33 4
a 33 21 4
a 21 22 1
a 22 21 1
a 22 34 7
a 34 22 7
a 22 23 9
a 23 22 9
a 23 35 2
a 35 23 2
a 23 24 3
a 24 23 3
a 24 36 3
a 36 24 3
a 25 37 2
a 37 25 2
a 25 26 2
a 26 25 2
a 26 38 4
a 38 26 4
a 26 27 5
a 27 26 5
a 27 39 1
a 39 27 1
a 27 28 10
a 28 27 10
a 28 40 6
a 40 28 6
a 28 29 6
a 29 28 6
a 29 41 3
a 41 29 3
a 29 30 7
a 30 29 7
a 30 42 4
a 42 30 4
a 32 44 4
a 44 32 4
a 32 33 7
a 33 32 7
a 33 45 6
a 45 33 6
a 33 34 5
a 34 33 5
a 34 46 4
a 46 34 4
a 34 35 4
a 35 34 4
a 35 47 8
a 47 35 8
a 35 36 3
a 36 35 3
a 36 48 2
a 48 36 2
a 37 49 2
a 49 37 2
a 37 38 10
a 38 37 10
a 38 50 1
a 50 38 1
a 38 39 6
a 39 38 6
a 39 51 8
a 51 39 8
a 39 40 8
a 40 39 8
a 40 52 2
a 52 40 2
a 40 41 2
a 41 40 2
a 41 53 8
a 53 41 8
a 41 42 8
a 42 41 8
a 42 54 6
a 54 42 6
a 42 43 3
a 43 42 3
a 43 55 7
a 55 43 7
a 43 44 10
a 44 43 10
a 44 56 3
a 56 44 3
a 44 45 9
a 45 44 9
a 45 57 3
a 57 45 3
a 45 46 1
a 46 45 1
a 46 58 8
a 58 46 8
a 46 47 9
a 47 46 9
a 47 59 10
a 59 47 10
a 47 48 8
a 48 47 8
a 49 61 9
a 61 49 9
a 49 50 8
a 50 49 8
a 50 62 2
a 62 50 2
a 50 51 9
a 51 50 9
a 51 63 9
a 63 51 9
a 51 52 1
a 52 51 1
a 52 64 6
a 64 52 6
a 52 53 1
a 53 52 1
a 53 65 4
a 65 53 4
a 53 54 10
a 54 53 10
a 54 55 2
a 55 54 2
a 55 67 2
a 67 55 2
a 55 56 7
a 56 55 7
a 56 68 5
a 68 56 5
a 56 57 4
a 57 56 4
a 57 69 9
a 69 57 9
a 57 58 9
a 58 57 9
a 58 59 7
a 59 58 7
a 59 71 4
a 71 59 4
a 61 73 6
a 73 61 6
a 61 62 1
a 62 61 1
a 62 74 9
a 74 62 9
a 62 63 8
a 63 62 8
a 63 75 10
a 75 63 10
a 63 64 1
a 64 63 1
a 64 76 6
a 76 64 6
a 64 65 8
a 65 64 8
a 65 77 9
a 77 65 9
a 67 79 6
a 79 67 6
a 67 68 3
a 68 67 3
a 68 80 1
a 80 68 1
a 68 69 4
a 69 68 4
a 69 81 1
a 81 69 1
a 71 83 8
a 83 71 8
a 71 72 9
a 72 71 9
a 72 84 6
a 84 72 6
a 73 85 5
a 85 73 5
a 73 74 7
a 74 73 7
a 74 86 9
a 86 74 9
a 74 75 2
a 75 74 2
a 75 87 2
a 87 75 2
a 75 76 4
a 76 75 4
a 76 88 8
a 88 76 8
a 76 77 6
a 77 76 6
a 77 89 10
a 89 77 10
a 77 78 3
a 78 77 3
a 78 90 7
a 90 78 7
a 78 79 4
a 79 78 4
a 79 91 3
a 91 79 3
a 79 80 5
a 80 79 5
a 80 92 6
a 92 80 6
a 80 81 5
a 81 80 5
a 81 93 10
a 93 81 10
a 81 82 8
a 82 81 8
a 82 94 3
a 94 82 3
a 82 83 10
a 83 82 10
a 83 95 5
a 95 83 5
a 83 84 9
a 84 83 9
a 84 96 8
a 96 84 8
a 85 97 1
a 97 85 1
a 85 86 3
a 86 85 3
a 86 98 7
a 98 86 7
a 86 87 8
a 87 86 8
a 87 99 6
a 99 87 6
a 87 88 6
a 88 87 6
a 88 100 6
a 100 88 6
a 88 89 8
a 89 88 8
a 89 101 9
a 101 89 9
a 89 90 5
a 90 89 5
a 90 102 1
a 102 90 1
a 90 91 4
a 91 90 4
a 91 103 8
a 103 91 8
a 91 92 10
a 92 91 10
a 92 104 1
a 104 92 1
a 92 93 7
a 93 92 7
a 93 105 9
a 105 93 9
a 93 94 4
a 94 93 4
a 94 95 2
a 95 94 2
a 95 107 1
a 107 95 1
a 95 96 10
a 96 95 10
a 96 108 10
a 108 96 10
a 97 109 9
a 109 97 9
a 97 98 7
a 98 97 7
a 98 110 2
a 110 98 2
a 98 99 1
a 99 98 1
a 99 111 5
a 111 99 5
a 99 100 4
a 100 99 4
a 100 112 4
a 112 100 4
a 100 101 5
a 101 100 5
a 101 113 6
a 113 101 6
a 101 102 4
a 102 101 4
a 102 114 3
a 114 102 3
a 102 103 7
a 103 102 7
a 103 115 10
a 115 103 10
a 103 104 7
a 104 103 7
a 104 116 2
a 116 104 2
a 104 105 9
a 105 104 9
a 105 117 1
a 117 105 1
a 107 119 2
a 119 107 2
a 107 108 1
a 108 107 1
a 108 120 10
a 120 108 10
a 109 121 7
a 121 109 7
a 109 110 10
a 110 109 10
a 110 111 2
a 111 110 2
a 111 123 8
a 123 111 8
a 111 112 10
a 112 111 10
a 112 124 3
a 124 112 3
a 112 113 8
a 113 112 8
a 113 125 8
a 125 113 8
a 113 114 9
a 114 113 9
a 114 126 10
a 126 114 10
a 114 115 10
a 115 114 10
a 115 127 4
a 127 115 4
a 115 116 2
a 116 115 2
a 116 128 2
a 128 116 2
a 116 117 4
a 117 116 4
a 117 129 1
a 129 117 1
a 117 118 9
a 118 117 9
a 118 130 3
a 130 118 3
a 118 119 8
a 119 118 8
a 119 131 9
a 131 119 9
a 119 120 6
a 120 119 6
a 120 132 6
a 132 120 6
a 121 133 8
a 133 121 8
a 123 135 9
a 135 123 9
a 123 124 1
a 124 123 1
a 124 136 2
a 136 124 2
a 124 125 1
a 125 124 1
a 125 137 10
a 137 125 10
a 125 126 10
a 126 125 10
a 126 138 8
a 138 126 8
a 126 127 2
a 127 126 2
a 127 139 1
a 139 127 1
a 127 128 8
a 128 127 8
a 128 140 4
a 140 128 4
a 128 129 6
a 129 128 6
a 129 141 5
a 141 129 5
a 129 130 8
a 130 129 8
a 130 142 5
a 142 130 5
a 130 131 1
a 131 130 1
a 131 143 3
a 143 131 3
a 131 132 4
a 132 131 4
a 132 144 2
a 144 132 2
a 135 136 8
a 136 135 8
a 136 137 5
a 137 136 5
a 137 138 3
a 138 137 3
a 138 139 6
a 139 138 6
a 139 140 9
a 140 139 9
a 140 141 9
a 141 140 9
a 141 142 5
a 142 141 5
a 142 143 5
a 143 142 5
a 143 144 8
a 144 143 8
